letting maxWeight=71
letting values=[23, 19, 1, 17, 4, 22, 18, 27, 19, 22, 28, 3, 8, 28, 20, 17, 24, 13, 19, 23, 29, 13, 5, 3, 12, 29, 28, 14, 28, 13, 13, 4, 31, 11, 26, 17, 3, 30, 9, 9, 14, 10, 9, 31, 28, 11, 25, 6, 28, 17, 17, 2, 19, 26, 27, 7, 11]
letting weights=[18, 13, 25, 17, 5, 4, 14, 21, 4, 10, 15, 23, 1, 12, 13, 13, 19, 15, 12, 19, 15, 3, 18, 5, 13, 17, 6, 18, 13, 14, 3, 18, 2, 15, 26, 13, 13, 3, 4, 8, 26, 1, 15, 14, 13, 9, 20, 12, 2, 7, 20, 8, 2, 18, 18, 23, 6]
